objective value:                 1.88737914186277e-15
VV311                                               1 	(obj:0)
VV320                                               1 	(obj:0)
VV321                                               1 	(obj:0)
VV322                                               1 	(obj:0)
VV328                                               1 	(obj:0)
VV339                                               1 	(obj:0)
VV340                                               1 	(obj:0)
VV347                                               1 	(obj:0)
VV352                                               1 	(obj:0)
VV360                                               1 	(obj:0)
VV408                                               1 	(obj:0)
VV410                                               1 	(obj:0)
VV427                                               1 	(obj:0)
VV428                                               1 	(obj:0)
VV435                                               1 	(obj:0)
VV440                                               1 	(obj:0)
VV448                                               1 	(obj:0)
VV361                                               2 	(obj:0)
VV346                                               2 	(obj:0)
VV300                                               2 	(obj:0)
VV498                                            1443 	(obj:0)
VV515                                            1605 	(obj:0)
VV516                                            1430 	(obj:0)
VV496                                            1828 	(obj:0)
VV497                                            1000 	(obj:0)
VV522                                            2000 	(obj:0)
VV523                                            1830 	(obj:0)
VV487                                            1000 	(obj:0)
VV528                                            1844 	(obj:0)
VV476                                            2000 	(obj:0)
VV504                                            1000 	(obj:0)
VV536                                            1450 	(obj:0)
VV537                                            2000 	(obj:0)
VV540                                           20430 	(obj:0)
